NAME : instance_2
COMMENT : Converted from simplified format
TYPE : CVRP
DIMENSION : 8
EDGE_WEIGHT_TYPE : EUC_2D
CAPACITY : 18
NODE_COORD_SECTION
1 0 0
2 91 98
3 84 64
4 1 34
5 70 16
6 45 21
7 37 95
8 17 97
DEMAND_SECTION
1 0
2 5
3 8
4 10
5 1
6 3
7 2
8 7
DEPOT_SECTION
1
EOF
